p cnf 128 576
1 -65 0
1 -66 0
65 -65 0
66 -66 0
17 -69 0
17 -70 0
69 -69 0
70 -70 0
33 -73 0
33 -74 0
73 -73 0
74 -74 0
49 -77 0
49 -78 0
77 -77 0
78 -78 0
2 -81 -65 0
-2 81 -65 0
2 81 -66 0
-2 -81 -66 0
18 -81 -69 0
-18 81 -69 0
18 81 -70 0
-18 -81 -70 0
34 -81 -73 0
-34 81 -73 0
34 81 -74 0
-34 -81 -74 0
50 -81 -77 0
-50 81 -77 0
50 81 -78 0
-50 -81 -78 0
3 -65 0
3 -66 0
65 -65 0
66 -66 0
19 -69 0
19 -70 0
69 -69 0
70 -70 0
35 -73 0
35 -74 0
73 -73 0
74 -74 0
51 -77 0
51 -78 0
77 -77 0
78 -78 0
4 -82 -65 0
-4 82 -65 0
4 82 -66 0
-4 -82 -66 0
20 -82 -69 0
-20 82 -69 0
20 82 -70 0
-20 -82 -70 0
36 -82 -73 0
-36 82 -73 0
36 82 -74 0
-36 -82 -74 0
52 -82 -77 0
-52 82 -77 0
52 82 -78 0
-52 -82 -78 0
5 -65 0
5 -66 0
65 -65 0
66 -66 0
21 -69 0
21 -70 0
69 -69 0
70 -70 0
37 -73 0
37 -74 0
73 -73 0
74 -74 0
53 -77 0
53 -78 0
77 -77 0
78 -78 0
6 -65 0
6 -66 0
65 -65 0
66 -66 0
22 -69 0
22 -70 0
69 -69 0
70 -70 0
38 -73 0
38 -74 0
73 -73 0
74 -74 0
54 -77 0
54 -78 0
77 -77 0
78 -78 0
7 -83 -65 0
-7 83 -65 0
7 83 -66 0
-7 -83 -66 0
23 -83 -69 0
-23 83 -69 0
23 83 -70 0
-23 -83 -70 0
39 -83 -73 0
-39 83 -73 0
39 83 -74 0
-39 -83 -74 0
55 -83 -77 0
-55 83 -77 0
55 83 -78 0
-55 -83 -78 0
8 -65 0
8 -66 0
65 -65 0
66 -66 0
24 -69 0
24 -70 0
69 -69 0
70 -70 0
40 -73 0
40 -74 0
73 -73 0
74 -74 0
56 -77 0
56 -78 0
77 -77 0
78 -78 0
9 -65 0
9 -66 0
65 -65 0
66 -66 0
25 -69 0
25 -70 0
69 -69 0
70 -70 0
41 -73 0
41 -74 0
73 -73 0
74 -74 0
57 -77 0
57 -78 0
77 -77 0
78 -78 0
10 -84 -65 0
-10 84 -65 0
10 84 -66 0
-10 -84 -66 0
26 -84 -69 0
-26 84 -69 0
26 84 -70 0
-26 -84 -70 0
42 -84 -73 0
-42 84 -73 0
42 84 -74 0
-42 -84 -74 0
58 -84 -77 0
-58 84 -77 0
58 84 -78 0
-58 -84 -78 0
11 -65 0
11 -66 0
65 -65 0
66 -66 0
27 -69 0
27 -70 0
69 -69 0
70 -70 0
43 -73 0
43 -74 0
73 -73 0
74 -74 0
59 -77 0
59 -78 0
77 -77 0
78 -78 0
-12 -65 0
-12 -66 0
65 -65 0
66 -66 0
-28 -69 0
-28 -70 0
69 -69 0
70 -70 0
-44 -73 0
-44 -74 0
73 -73 0
74 -74 0
-60 -77 0
-60 -78 0
77 -77 0
78 -78 0
13 -85 -65 0
-13 85 -65 0
13 85 -66 0
-13 -85 -66 0
29 -85 -69 0
-29 85 -69 0
29 85 -70 0
-29 -85 -70 0
45 -85 -73 0
-45 85 -73 0
45 85 -74 0
-45 -85 -74 0
61 -85 -77 0
-61 85 -77 0
61 85 -78 0
-61 -85 -78 0
14 -86 -65 0
-14 86 -65 0
14 86 -66 0
-14 -86 -66 0
30 -86 -69 0
-30 86 -69 0
30 86 -70 0
-30 -86 -70 0
46 -86 -73 0
-46 86 -73 0
46 86 -74 0
-46 -86 -74 0
62 -86 -77 0
-62 86 -77 0
62 86 -78 0
-62 -86 -78 0
15 -65 0
15 -66 0
65 -65 0
66 -66 0
31 -69 0
31 -70 0
69 -69 0
70 -70 0
47 -73 0
47 -74 0
73 -73 0
74 -74 0
63 -77 0
63 -78 0
77 -77 0
78 -78 0
16 -65 0
16 -66 0
65 -65 0
66 -66 0
32 -69 0
32 -70 0
69 -69 0
70 -70 0
48 -73 0
48 -74 0
73 -73 0
74 -74 0
64 -77 0
64 -78 0
77 -77 0
78 -78 0
-113 65 0
113 -65 0
-114 66 0
113 -66 0
-113 -65 0
-114 -66 0
-117 65 113 0
117 -65 0
117 -113 0
-118 66 114 0
118 -66 0
118 -114 0
-117 -69 0
-118 -70 0
-121 69 117 0
121 -69 0
121 -117 0
-122 70 118 0
122 -70 0
122 -118 0
-121 -73 0
-122 -74 0
-125 73 121 0
125 -73 0
125 -121 0
-126 74 122 0
126 -74 0
126 -122 0
-125 -77 0
-126 -78 0
125 0
126 0
1 -67 0
1 -68 0
67 -67 0
68 -68 0
17 -71 0
17 -72 0
71 -71 0
72 -72 0
33 -75 0
33 -76 0
75 -75 0
76 -76 0
49 -79 0
49 -80 0
79 -79 0
80 -80 0
2 -87 -67 0
-2 87 -67 0
2 87 -68 0
-2 -87 -68 0
18 -87 -71 0
-18 87 -71 0
18 87 -72 0
-18 -87 -72 0
34 -87 -75 0
-34 87 -75 0
34 87 -76 0
-34 -87 -76 0
50 -87 -79 0
-50 87 -79 0
50 87 -80 0
-50 -87 -80 0
3 -67 0
3 -68 0
67 -67 0
68 -68 0
19 -71 0
19 -72 0
71 -71 0
72 -72 0
35 -75 0
35 -76 0
75 -75 0
76 -76 0
51 -79 0
51 -80 0
79 -79 0
80 -80 0
4 -88 -67 0
-4 88 -67 0
4 88 -68 0
-4 -88 -68 0
20 -88 -71 0
-20 88 -71 0
20 88 -72 0
-20 -88 -72 0
36 -88 -75 0
-36 88 -75 0
36 88 -76 0
-36 -88 -76 0
52 -88 -79 0
-52 88 -79 0
52 88 -80 0
-52 -88 -80 0
5 -67 0
5 -68 0
67 -67 0
68 -68 0
21 -71 0
21 -72 0
71 -71 0
72 -72 0
37 -75 0
37 -76 0
75 -75 0
76 -76 0
53 -79 0
53 -80 0
79 -79 0
80 -80 0
6 -67 0
6 -68 0
67 -67 0
68 -68 0
22 -71 0
22 -72 0
71 -71 0
72 -72 0
38 -75 0
38 -76 0
75 -75 0
76 -76 0
54 -79 0
54 -80 0
79 -79 0
80 -80 0
7 -89 -67 0
-7 89 -67 0
7 89 -68 0
-7 -89 -68 0
23 -89 -71 0
-23 89 -71 0
23 89 -72 0
-23 -89 -72 0
39 -89 -75 0
-39 89 -75 0
39 89 -76 0
-39 -89 -76 0
55 -89 -79 0
-55 89 -79 0
55 89 -80 0
-55 -89 -80 0
8 -67 0
8 -68 0
67 -67 0
68 -68 0
24 -71 0
24 -72 0
71 -71 0
72 -72 0
40 -75 0
40 -76 0
75 -75 0
76 -76 0
56 -79 0
56 -80 0
79 -79 0
80 -80 0
9 -67 0
9 -68 0
67 -67 0
68 -68 0
25 -71 0
25 -72 0
71 -71 0
72 -72 0
41 -75 0
41 -76 0
75 -75 0
76 -76 0
57 -79 0
57 -80 0
79 -79 0
80 -80 0
10 -90 -67 0
-10 90 -67 0
10 90 -68 0
-10 -90 -68 0
26 -90 -71 0
-26 90 -71 0
26 90 -72 0
-26 -90 -72 0
42 -90 -75 0
-42 90 -75 0
42 90 -76 0
-42 -90 -76 0
58 -90 -79 0
-58 90 -79 0
58 90 -80 0
-58 -90 -80 0
11 -67 0
11 -68 0
67 -67 0
68 -68 0
27 -71 0
27 -72 0
71 -71 0
72 -72 0
43 -75 0
43 -76 0
75 -75 0
76 -76 0
59 -79 0
59 -80 0
79 -79 0
80 -80 0
12 -91 -67 0
-12 91 -67 0
12 91 -68 0
-12 -91 -68 0
28 -91 -71 0
-28 91 -71 0
28 91 -72 0
-28 -91 -72 0
44 -91 -75 0
-44 91 -75 0
44 91 -76 0
-44 -91 -76 0
60 -91 -79 0
-60 91 -79 0
60 91 -80 0
-60 -91 -80 0
13 -92 -67 0
-13 92 -67 0
13 92 -68 0
-13 -92 -68 0
29 -92 -71 0
-29 92 -71 0
29 92 -72 0
-29 -92 -72 0
45 -92 -75 0
-45 92 -75 0
45 92 -76 0
-45 -92 -76 0
61 -92 -79 0
-61 92 -79 0
61 92 -80 0
-61 -92 -80 0
14 -67 0
14 -68 0
67 -67 0
68 -68 0
30 -71 0
30 -72 0
71 -71 0
72 -72 0
46 -75 0
46 -76 0
75 -75 0
76 -76 0
62 -79 0
62 -80 0
79 -79 0
80 -80 0
15 -67 0
15 -68 0
67 -67 0
68 -68 0
31 -71 0
31 -72 0
71 -71 0
72 -72 0
47 -75 0
47 -76 0
75 -75 0
76 -76 0
63 -79 0
63 -80 0
79 -79 0
80 -80 0
16 -67 0
16 -68 0
67 -67 0
68 -68 0
32 -71 0
32 -72 0
71 -71 0
72 -72 0
48 -75 0
48 -76 0
75 -75 0
76 -76 0
64 -79 0
64 -80 0
79 -79 0
80 -80 0
-115 67 0
115 -67 0
-116 68 0
115 -68 0
-115 -67 0
-116 -68 0
-119 67 115 0
119 -67 0
119 -115 0
-120 68 116 0
120 -68 0
120 -116 0
-119 -71 0
-120 -72 0
-123 71 119 0
123 -71 0
123 -119 0
-124 72 120 0
124 -72 0
124 -120 0
-123 -75 0
-124 -76 0
-127 75 123 0
127 -75 0
127 -123 0
-128 76 124 0
128 -76 0
128 -124 0
-127 -79 0
-128 -80 0
127 0
128 0
